certificates/rado_a13_c21_N68.cnf
c Rad2 upper bound instance: x1 + 13*x2 - x3 = 21, interval [1,68]
p cnf 68 490
1 2 6 0
-1 -2 -6 0
1 3 19 0
-1 -3 -19 0
1 4 32 0
-1 -4 -32 0
1 5 45 0
-1 -5 -45 0
1 6 58 0
-1 -6 -58 0
2 7 0
-2 -7 0
2 3 20 0
-2 -3 -20 0
2 4 33 0
-2 -4 -33 0
2 5 46 0
-2 -5 -46 0
2 6 59 0
-2 -6 -59 0
2 3 8 0
-2 -3 -8 0
3 21 0
-3 -21 0
3 4 34 0
-3 -4 -34 0
3 5 47 0
-3 -5 -47 0
3 6 60 0
-3 -6 -60 0
2 4 9 0
-2 -4 -9 0
3 4 22 0
-3 -4 -22 0
4 35 0
-4 -35 0
4 5 48 0
-4 -5 -48 0
4 6 61 0
-4 -6 -61 0
2 5 10 0
-2 -5 -10 0
3 5 23 0
-3 -5 -23 0
4 5 36 0
-4 -5 -36 0
5 49 0
-5 -49 0
5 6 62 0
-5 -6 -62 0
2 6 11 0
-2 -6 -11 0
3 6 24 0
-3 -6 -24 0
4 6 37 0
-4 -6 -37 0
5 6 50 0
-5 -6 -50 0
6 63 0
-6 -63 0
2 7 12 0
-2 -7 -12 0
3 7 25 0
-3 -7 -25 0
4 7 38 0
-4 -7 -38 0
5 7 51 0
-5 -7 -51 0
6 7 64 0
-6 -7 -64 0
2 8 13 0
-2 -8 -13 0
3 8 26 0
-3 -8 -26 0
4 8 39 0
-4 -8 -39 0
5 8 52 0
-5 -8 -52 0
6 8 65 0
-6 -8 -65 0
1 9 0
-1 -9 0
2 9 14 0
-2 -9 -14 0
3 9 27 0
-3 -9 -27 0
4 9 40 0
-4 -9 -40 0
5 9 53 0
-5 -9 -53 0
6 9 66 0
-6 -9 -66 0
1 2 10 0
-1 -2 -10 0
2 10 15 0
-2 -10 -15 0
3 10 28 0
-3 -10 -28 0
4 10 41 0
-4 -10 -41 0
5 10 54 0
-5 -10 -54 0
6 10 67 0
-6 -10 -67 0
1 3 11 0
-1 -3 -11 0
2 11 16 0
-2 -11 -16 0
3 11 29 0
-3 -11 -29 0
4 11 42 0
-4 -11 -42 0
5 11 55 0
-5 -11 -55 0
6 11 68 0
-6 -11 -68 0
1 4 12 0
-1 -4 -12 0
2 12 17 0
-2 -12 -17 0
3 12 30 0
-3 -12 -30 0
4 12 43 0
-4 -12 -43 0
5 12 56 0
-5 -12 -56 0
1 5 13 0
-1 -5 -13 0
2 13 18 0
-2 -13 -18 0
3 13 31 0
-3 -13 -31 0
4 13 44 0
-4 -13 -44 0
5 13 57 0
-5 -13 -57 0
1 6 14 0
-1 -6 -14 0
2 14 19 0
-2 -14 -19 0
3 14 32 0
-3 -14 -32 0
4 14 45 0
-4 -14 -45 0
5 14 58 0
-5 -14 -58 0
1 7 15 0
-1 -7 -15 0
2 15 20 0
-2 -15 -20 0
3 15 33 0
-3 -15 -33 0
4 15 46 0
-4 -15 -46 0
5 15 59 0
-5 -15 -59 0
1 8 16 0
-1 -8 -16 0
2 16 21 0
-2 -16 -21 0
3 16 34 0
-3 -16 -34 0
4 16 47 0
-4 -16 -47 0
5 16 60 0
-5 -16 -60 0
1 9 17 0
-1 -9 -17 0
2 17 22 0
-2 -17 -22 0
3 17 35 0
-3 -17 -35 0
4 17 48 0
-4 -17 -48 0
5 17 61 0
-5 -17 -61 0
1 10 18 0
-1 -10 -18 0
2 18 23 0
-2 -18 -23 0
3 18 36 0
-3 -18 -36 0
4 18 49 0
-4 -18 -49 0
5 18 62 0
-5 -18 -62 0
1 11 19 0
-1 -11 -19 0
2 19 24 0
-2 -19 -24 0
3 19 37 0
-3 -19 -37 0
4 19 50 0
-4 -19 -50 0
5 19 63 0
-5 -19 -63 0
1 12 20 0
-1 -12 -20 0
2 20 25 0
-2 -20 -25 0
3 20 38 0
-3 -20 -38 0
4 20 51 0
-4 -20 -51 0
5 20 64 0
-5 -20 -64 0
1 13 21 0
-1 -13 -21 0
2 21 26 0
-2 -21 -26 0
3 21 39 0
-3 -21 -39 0
4 21 52 0
-4 -21 -52 0
5 21 65 0
-5 -21 -65 0
1 14 22 0
-1 -14 -22 0
2 22 27 0
-2 -22 -27 0
3 22 40 0
-3 -22 -40 0
4 22 53 0
-4 -22 -53 0
5 22 66 0
-5 -22 -66 0
1 15 23 0
-1 -15 -23 0
2 23 28 0
-2 -23 -28 0
3 23 41 0
-3 -23 -41 0
4 23 54 0
-4 -23 -54 0
5 23 67 0
-5 -23 -67 0
1 16 24 0
-1 -16 -24 0
2 24 29 0
-2 -24 -29 0
3 24 42 0
-3 -24 -42 0
4 24 55 0
-4 -24 -55 0
5 24 68 0
-5 -24 -68 0
1 17 25 0
-1 -17 -25 0
2 25 30 0
-2 -25 -30 0
3 25 43 0
-3 -25 -43 0
4 25 56 0
-4 -25 -56 0
1 18 26 0
-1 -18 -26 0
2 26 31 0
-2 -26 -31 0
3 26 44 0
-3 -26 -44 0
4 26 57 0
-4 -26 -57 0
1 19 27 0
-1 -19 -27 0
2 27 32 0
-2 -27 -32 0
3 27 45 0
-3 -27 -45 0
4 27 58 0
-4 -27 -58 0
1 20 28 0
-1 -20 -28 0
2 28 33 0
-2 -28 -33 0
3 28 46 0
-3 -28 -46 0
4 28 59 0
-4 -28 -59 0
1 21 29 0
-1 -21 -29 0
2 29 34 0
-2 -29 -34 0
3 29 47 0
-3 -29 -47 0
4 29 60 0
-4 -29 -60 0
1 22 30 0
-1 -22 -30 0
2 30 35 0
-2 -30 -35 0
3 30 48 0
-3 -30 -48 0
4 30 61 0
-4 -30 -61 0
1 23 31 0
-1 -23 -31 0
2 31 36 0
-2 -31 -36 0
3 31 49 0
-3 -31 -49 0
4 31 62 0
-4 -31 -62 0
1 24 32 0
-1 -24 -32 0
2 32 37 0
-2 -32 -37 0
3 32 50 0
-3 -32 -50 0
4 32 63 0
-4 -32 -63 0
1 25 33 0
-1 -25 -33 0
2 33 38 0
-2 -33 -38 0
3 33 51 0
-3 -33 -51 0
4 33 64 0
-4 -33 -64 0
1 26 34 0
-1 -26 -34 0
2 34 39 0
-2 -34 -39 0
3 34 52 0
-3 -34 -52 0
4 34 65 0
-4 -34 -65 0
1 27 35 0
-1 -27 -35 0
2 35 40 0
-2 -35 -40 0
3 35 53 0
-3 -35 -53 0
4 35 66 0
-4 -35 -66 0
1 28 36 0
-1 -28 -36 0
2 36 41 0
-2 -36 -41 0
3 36 54 0
-3 -36 -54 0
4 36 67 0
-4 -36 -67 0
1 29 37 0
-1 -29 -37 0
2 37 42 0
-2 -37 -42 0
3 37 55 0
-3 -37 -55 0
4 37 68 0
-4 -37 -68 0
1 30 38 0
-1 -30 -38 0
2 38 43 0
-2 -38 -43 0
3 38 56 0
-3 -38 -56 0
1 31 39 0
-1 -31 -39 0
2 39 44 0
-2 -39 -44 0
3 39 57 0
-3 -39 -57 0
1 32 40 0
-1 -32 -40 0
2 40 45 0
-2 -40 -45 0
3 40 58 0
-3 -40 -58 0
1 33 41 0
-1 -33 -41 0
2 41 46 0
-2 -41 -46 0
3 41 59 0
-3 -41 -59 0
1 34 42 0
-1 -34 -42 0
2 42 47 0
-2 -42 -47 0
3 42 60 0
-3 -42 -60 0
1 35 43 0
-1 -35 -43 0
2 43 48 0
-2 -43 -48 0
3 43 61 0
-3 -43 -61 0
1 36 44 0
-1 -36 -44 0
2 44 49 0
-2 -44 -49 0
3 44 62 0
-3 -44 -62 0
1 37 45 0
-1 -37 -45 0
2 45 50 0
-2 -45 -50 0
3 45 63 0
-3 -45 -63 0
1 38 46 0
-1 -38 -46 0
2 46 51 0
-2 -46 -51 0
3 46 64 0
-3 -46 -64 0
1 39 47 0
-1 -39 -47 0
2 47 52 0
-2 -47 -52 0
3 47 65 0
-3 -47 -65 0
1 40 48 0
-1 -40 -48 0
2 48 53 0
-2 -48 -53 0
3 48 66 0
-3 -48 -66 0
1 41 49 0
-1 -41 -49 0
2 49 54 0
-2 -49 -54 0
3 49 67 0
-3 -49 -67 0
1 42 50 0
-1 -42 -50 0
2 50 55 0
-2 -50 -55 0
3 50 68 0
-3 -50 -68 0
1 43 51 0
-1 -43 -51 0
2 51 56 0
-2 -51 -56 0
1 44 52 0
-1 -44 -52 0
2 52 57 0
-2 -52 -57 0
1 45 53 0
-1 -45 -53 0
2 53 58 0
-2 -53 -58 0
1 46 54 0
-1 -46 -54 0
2 54 59 0
-2 -54 -59 0
1 47 55 0
-1 -47 -55 0
2 55 60 0
-2 -55 -60 0
1 48 56 0
-1 -48 -56 0
2 56 61 0
-2 -56 -61 0
1 49 57 0
-1 -49 -57 0
2 57 62 0
-2 -57 -62 0
1 50 58 0
-1 -50 -58 0
2 58 63 0
-2 -58 -63 0
1 51 59 0
-1 -51 -59 0
2 59 64 0
-2 -59 -64 0
1 52 60 0
-1 -52 -60 0
2 60 65 0
-2 -60 -65 0
1 53 61 0
-1 -53 -61 0
2 61 66 0
-2 -61 -66 0
1 54 62 0
-1 -54 -62 0
2 62 67 0
-2 -62 -67 0
1 55 63 0
-1 -55 -63 0
2 63 68 0
-2 -63 -68 0
1 56 64 0
-1 -56 -64 0
1 57 65 0
-1 -57 -65 0
1 58 66 0
-1 -58 -66 0
1 59 67 0
-1 -59 -67 0
1 60 68 0
-1 -60 -68 0
