certificates/rado_a13_c21_N68.drat
-63 -67 -68 0
-1 63 0
-67 -68 0
d -63 -67 -68 0
63 -68 0
-68 0
2 -10 6 0
-10 6 0
d 2 -10 6 0
6 67 0
d 10 6 67 0
67 0
63 0
-6 0
11 0
-10 0
-2 0
1 0
7 0
59 0
15 0
5 0
-9 0
0
